0 0 0 0
0 1 0 0
0 2 0 0
0 3 0 0
0 4 0 2
0 5 2 3
0 6 0 3
0 7 0 5
0 8 1 1
0 9 1 2
0 10 2 3
0 11 0 6
0 12 0 13
0 13 0 10
0 14 2 14
0 15 0 13
0 16 1 6
0 17 0 11
0 18 0 18
0 19 0 10
0 20 0 13
0 21 0 17
0 22 0 19
0 23 0 22
0 24 0 14
0 25 1 20
0 26 1 18
0 27 0 20
0 28 0 27
0 29 0 27
0 30 0 26
0 31 0 28
